param set_len = 60;
param target := 553348;
param values := [1] 3954 [2] 32450 [3] 6140 [4] 26741 [5] 23190 [6] 6018 [7] 29097 [8] 27096 [9] 28503 [10] 5193 [11] 24420 [12] 31159 [13] 23261 [14] 2759 [15] 24100 [16] 12149 [17] 12470 [18] 6199 [19] 13414 [20] 27974 [21] 12171 [22] 32173 [23] 5632 [24] 8097 [25] 15434 [26] 2895 [27] 25556 [28] 1809 [29] 3848 [30] 1338 [31] 19649 [32] 15388 [33] 14592 [34] 7820 [35] 12825 [36] 20927 [37] 13615 [38] 152 [39] 24538 [40] 24572 [41] 26782 [42] 11530 [43] 12997 [44] 4226 [45] 29567 [46] 28231 [47] 27495 [48] 27323 [49] 19867 [50] 22582 [51] 13135 [52] 27549 [53] 24522 [54] 26905 [55] 30347 [56] 29085 [57] 25248 [58] 27025 [59] 24719 [60] 18830 ;
